Route #1: 57 94 64 105 69 17 2 21 99
Route #2: 22 52 33
Route #3: 39 50 81 6 70 4 59 35
Route #4: 45 100 51 60 87 76 44
Route #5: 78 19 27 37 79 71 49 46
Route #6: 25 47 61 80 65 38 95 68
Route #7: 89 30 42 98 23 55 3 32 73
Route #8: 56 20 16 10 41 18 86
Route #9: 62 7 75 84 9 12 102
Route #10: 14 58 88 91 36 8 48 67
Route #11: 82 63 31 40 83 77 85 54 13
Route #12: 101 66 97 93 28 103 53 15
Route #13: 43 74 11 34 72 29 96
Route #14: 26 92 90 24 104 1 5
